* Signature: 0x4e27b2123e30bd00
NAME train opt
ROWS
 N  OBJ
 E  R0      
 E  R1      
 E  R2      
 E  R3      
 E  R4      
 E  R5      
 E  R6      
 E  R7      
 E  R8      
 E  R9      
 E  R10     
 E  R11     
 E  R12     
 E  R13     
 E  R14     
 E  R15     
 E  R16     
 E  R17     
COLUMNS
    MARKER    'MARKER'                 'INTORG'
    B0(4)     R0        1
    B0(4)     R1        1
    B0(4)     R8        1
    B0(4)     R9        1
    B1(4)     R1        -1
    B1(4)     R2        1
    B1(4)     R10       1
    B1(4)     R12       1
    B2(4)     R1        -1
    B2(4)     R2        1
    B2(4)     R11       1
    B2(4)     R13       1
    B3(2)     R2        -1
    B3(2)     R3        1
    B4(4)     R4        1
    B4(4)     R5        1
    B4(4)     R14       1
    B4(4)     R15       1
    B5(4)     R5        -1
    B5(4)     R6        1
    B5(4)     R16       1
    B5(4)     R17       1
    B6(2)     R6        -1
    B6(2)     R7        1
    B7(1)     R12       -1
    B8(1)     R15       -1
    B9(2)     R10       -1
    B9(2)     R15       -1
    B10(1)    R11       -1
    B11(1)    R13       -1
    B12(1)    R9        -1
    B13(2)    R9        -1
    B13(2)    R16       -1
    B14(1)    R17       -1
    MARKER    'MARKER'                 'INTEND'
RHS
    RHS1      R0        1
    RHS1      R3        1
    RHS1      R4        1
    RHS1      R7        1
BOUNDS
 BV BND1      B0(4)   
 BV BND1      B1(4)   
 BV BND1      B2(4)   
 BV BND1      B3(2)   
 BV BND1      B4(4)   
 BV BND1      B5(4)   
 BV BND1      B6(2)   
 BV BND1      B7(1)   
 BV BND1      B8(1)   
 BV BND1      B9(2)   
 BV BND1      B10(1)  
 BV BND1      B11(1)  
 BV BND1      B12(1)  
 BV BND1      B13(2)  
 BV BND1      B14(1)  
ENDATA
